DATASET = "thpack7";
INSTANCE = "060";

WIDTH = 233;
HEIGHT = 220;
LENGTH = 587;

NO_OF_SHAPES = 20;
size = [|
  78,72,58 |
  107,57,57 |
  72,64,37 |
  93,66,26 |
  116,67,35 |
  101,56,39 |
  108,100,39 |
  64,55,33 |
  73,65,53 |
  106,41,35 |
  82,78,28 |
  79,59,58 |
  92,84,22 |
  80,65,50 |
  82,77,24 |
  74,73,51 |
  90,43,40 |
  98,70,51 |
  69,32,30 |
  107,69,53 |
|];

verticality = [|
  1,1,1 |
  1,1,1 |
  1,1,1 |
  0,0,1 |
  0,1,1 |
  0,1,1 |
  0,0,1 |
  1,1,1 |
  1,1,1 |
  0,1,1 |
  0,0,1 |
  1,1,1 |
  0,0,1 |
  1,1,1 |
  0,0,1 |
  1,1,1 |
  0,1,1 |
  1,1,1 |
  0,1,1 |
  0,1,1 |
|];

box_count = [
  5,
  6,
  7,
  6,
  13,
  11,
  6,
  7,
  8,
  6,
  5,
  2,
  5,
  5,
  3,
  6,
  4,
  7,
  7,
  7,
];
